c generated by sgen1
c Command: ./sgen1 -sat -n 10 -s 59 
p cnf 10 24
-1 -2 0
-1 -3 0
-1 -4 0
-1 -5 0
-2 -3 0
-2 -4 0
-2 -5 0
-3 -4 0
-3 -5 0
-4 -5 0
-6 -7 0
-6 -8 0
-6 -9 0
-6 -10 0
-7 -8 0
-7 -9 0
-7 -10 0
-8 -9 0
-8 -10 0
-9 -10 0
1 10 6 5 2 0
9 7 3 4 8 0
1 3 8 6 10 0
5 7 4 9 2 0
